c nIsolatedPIs 8
c maxPI 24
p cnf 110 259
c gate 25 -6 -18 0
-6 -25 0
-18 -25 0
6 18 25 0
c gate 26 5 17 0
5 -26 0
17 -26 0
-5 -17 26 0
c gate 27 4 16 0
4 -27 0
16 -27 0
-4 -16 27 0
c gate 28 1 13 0
1 -28 0
13 -28 0
-1 -13 28 0
c gate 29 -27 -28 0
-27 -29 0
-28 -29 0
27 28 29 0
c gate 30 -5 -17 0
-5 -30 0
-17 -30 0
5 17 30 0
c gate 31 -4 -16 0
-4 -31 0
-16 -31 0
4 16 31 0
c gate 32 -30 -31 0
-30 -32 0
-31 -32 0
30 31 32 0
c gate 33 -29 32 0
-29 -33 0
32 -33 0
29 -32 33 0
c gate 34 -26 -33 0
-26 -34 0
-33 -34 0
26 33 34 0
c gate 35 -25 -34 0
-25 -35 0
-34 -35 0
25 34 35 0
c gate 36 6 18 0
6 -36 0
18 -36 0
-6 -18 36 0
c gate 37 7 19 0
7 -37 0
19 -37 0
-7 -19 37 0
c gate 38 -36 -37 0
-36 -38 0
-37 -38 0
36 37 38 0
c gate 39 -35 38 0
-35 -39 0
38 -39 0
35 -38 39 0
c gate 40 -8 -20 0
-8 -40 0
-20 -40 0
8 20 40 0
c gate 41 -7 -19 0
-7 -41 0
-19 -41 0
7 19 41 0
c gate 42 -40 -41 0
-40 -42 0
-41 -42 0
40 41 42 0
c gate 43 -39 42 0
-39 -43 0
42 -43 0
39 -42 43 0
c gate 44 9 21 0
9 -44 0
21 -44 0
-9 -21 44 0
c gate 45 8 20 0
8 -45 0
20 -45 0
-8 -20 45 0
c gate 46 -9 -21 0
-9 -46 0
-21 -46 0
9 21 46 0
c gate 47 -45 -46 0
-45 -47 0
-46 -47 0
45 46 47 0
c gate 48 -44 47 0
-44 -48 0
47 -48 0
44 -47 48 0
c gate 49 -43 48 0
-43 -49 0
48 -49 0
43 -48 49 0
c gate 50 -10 -22 0
-10 -50 0
-22 -50 0
10 22 50 0
c gate 51 -46 -50 0
-46 -51 0
-50 -51 0
46 50 51 0
c gate 52 10 22 0
10 -52 0
22 -52 0
-10 -22 52 0
c gate 53 11 23 0
11 -53 0
23 -53 0
-11 -23 53 0
c gate 54 -52 -53 0
-52 -54 0
-53 -54 0
52 53 54 0
c gate 55 -51 54 0
-51 -55 0
54 -55 0
51 -54 55 0
c gate 56 -12 -24 0
-12 -56 0
-24 -56 0
12 24 56 0
c gate 57 -11 -23 0
-11 -57 0
-23 -57 0
11 23 57 0
c gate 58 -56 -57 0
-56 -58 0
-57 -58 0
56 57 58 0
c gate 59 -55 58 0
-55 -59 0
58 -59 0
55 -58 59 0
c gate 60 2 14 0
2 -60 0
14 -60 0
-2 -14 60 0
c gate 61 12 24 0
12 -61 0
24 -61 0
-12 -24 61 0
c gate 62 -60 -61 0
-60 -62 0
-61 -62 0
60 61 62 0
c gate 63 -59 62 0
-59 -63 0
62 -63 0
59 -62 63 0
c gate 64 3 15 0
3 -64 0
15 -64 0
-3 -15 64 0
c gate 65 -2 -14 0
-2 -65 0
-14 -65 0
2 14 65 0
c gate 66 -3 -15 0
-3 -66 0
-15 -66 0
3 15 66 0
c gate 67 -65 -66 0
-65 -67 0
-66 -67 0
65 66 67 0
c gate 68 -64 67 0
-64 -68 0
67 -68 0
64 -67 68 0
c gate 69 -63 68 0
-63 -69 0
68 -69 0
63 -68 69 0
c gate 70 -4 16 0
-4 -70 0
16 -70 0
4 -16 70 0
c gate 71 -1 13 0
-1 -71 0
13 -71 0
1 -13 71 0
c gate 72 -70 -71 0
-70 -72 0
-71 -72 0
70 71 72 0
c gate 73 4 -16 0
4 -73 0
-16 -73 0
-4 16 73 0
c gate 74 5 -17 0
5 -74 0
-17 -74 0
-5 17 74 0
c gate 75 -73 -74 0
-73 -75 0
-74 -75 0
73 74 75 0
c gate 76 -72 75 0
-72 -76 0
75 -76 0
72 -75 76 0
c gate 77 -6 18 0
-6 -77 0
18 -77 0
6 -18 77 0
c gate 78 -5 17 0
-5 -78 0
17 -78 0
5 -17 78 0
c gate 79 -77 -78 0
-77 -79 0
-78 -79 0
77 78 79 0
c gate 80 -76 79 0
-76 -80 0
79 -80 0
76 -79 80 0
c gate 81 7 -19 0
7 -81 0
-19 -81 0
-7 19 81 0
c gate 82 6 -18 0
6 -82 0
-18 -82 0
-6 18 82 0
c gate 83 -81 -82 0
-81 -83 0
-82 -83 0
81 82 83 0
c gate 84 -80 83 0
-80 -84 0
83 -84 0
80 -83 84 0
c gate 85 -40 -45 0
-40 -85 0
-45 -85 0
40 45 85 0
c gate 86 -7 19 0
-7 -86 0
19 -86 0
7 -19 86 0
c gate 87 -85 -86 0
-85 -87 0
-86 -87 0
85 86 87 0
c gate 88 -84 87 0
-84 -88 0
87 -88 0
84 -87 88 0
c gate 89 10 -22 0
10 -89 0
-22 -89 0
-10 22 89 0
c gate 90 11 -23 0
11 -90 0
-23 -90 0
-11 23 90 0
c gate 91 -89 -90 0
-89 -91 0
-90 -91 0
89 90 91 0
c gate 92 -11 23 0
-11 -92 0
23 -92 0
11 -23 92 0
c gate 93 -12 24 0
-12 -93 0
24 -93 0
12 -24 93 0
c gate 94 -92 -93 0
-92 -94 0
-93 -94 0
92 93 94 0
c gate 95 -91 94 0
-91 -95 0
94 -95 0
91 -94 95 0
c gate 96 -60 -65 0
-60 -96 0
-65 -96 0
60 65 96 0
c gate 97 12 -24 0
12 -97 0
-24 -97 0
-12 24 97 0
c gate 98 -96 -97 0
-96 -98 0
-97 -98 0
96 97 98 0
c gate 99 -95 98 0
-95 -99 0
98 -99 0
95 -98 99 0
c gate 100 8 -20 0
8 -100 0
-20 -100 0
-8 20 100 0
c gate 101 9 -21 0
9 -101 0
-21 -101 0
-9 21 101 0
c gate 102 -100 -101 0
-100 -102 0
-101 -102 0
100 101 102 0
c gate 103 -9 21 0
-9 -103 0
21 -103 0
9 -21 103 0
c gate 104 -50 -52 0
-50 -104 0
-52 -104 0
50 52 104 0
c gate 105 -103 -104 0
-103 -105 0
-104 -105 0
103 104 105 0
c gate 106 -102 105 0
-102 -106 0
105 -106 0
102 -105 106 0
c gate 107 -99 -106 0
-99 -107 0
-106 -107 0
99 106 107 0
c gate 108 -88 107 0
-88 -108 0
107 -108 0
88 -107 108 0
c gate 109 -69 108 0
-69 -109 0
108 -109 0
69 -108 109 0
c gate 110 -49 109 0
-49 -110 0
109 -110 0
49 -109 110 0
c PO
-110 0
